 &CONTROL
    prefix = 'alo'

    ! outdir = 'temporary directory for large files'
    pseudo_dir = './pseudo',
 /

 &SYSTEM    
    ibrav = 0 ,
    nat =  16,
    ntyp = 2, 

    occupations = 'smearing',
    smearing = 'methfessel-paxton',
    nspin = 2,
    starting_magnetization(1)=0,
    starting_magnetization(2)=0.5,
    degauss = 0.014
    input_dft = 'PBE'
 /
&ELECTRONS

/
CELL_PARAMETERS angstrom
        93.9912624359         0.0000000000         0.0000000000
        0.0000000000         2.8559544086         0.0000000000
        0.0000000000         0.0000000000         4.9466581345



ATOMIC_SPECIES
   Al  26.98 Al.pbe-n-kjpaw_psl.1.0.0.UPF
   O   15.99 O.pbe-n-kjpaw_psl.1.0.0.UPF
ATOMIC_POSITIONS angstrom
   Al    40.000000000         0.000000000         0.000000000
   Al    53.991262436         0.000000000         0.000000000
   Al    46.995631218         0.000000000         0.000000000
   Al    42.331877073         0.000000000         3.297772090
   Al    49.327508291         0.000000000         3.297772090
   Al    44.663754145         0.000000000         1.648886045
   Al    51.659385363         0.000000000         1.648886045
   Al    42.331877073         1.427977204         0.824443022
   Al    49.327508291         1.427977204         0.824443022
   Al    44.663754145         1.427977204         4.122215112
   Al    51.659385363         1.427977204         4.122215112
   Al    40.000000000         1.427977204         2.473329067
   Al    53.991262436         1.427977204         2.473329067
   Al    46.995631218         1.427977204         2.473329067
   O     54.791262436         1.427977204         4.122215112
   O     55.391262436         1.427977204         4.122215112
K_POINTS automatic
   12 12 1 0 0 0
